proyfinal/src/viki/013/andrea/andrea-localstore/experimentInOfficeAgust.take6/worker_9/bec4007e-0cf9-4a16-b880-71eb4c04afeb.als.cnf.out
Reading from standard input... Use '--help' for help.
============================[ Problem Statistics ]=============================
|                                                                             |
|  Number of variables:         87638                                         |
|  Number of clauses:          161767                                         |
|  Parse time:                   0.03 s                                       |
|                                                                             |
============================[ Search Statistics ]==============================
| Conflicts |          ORIGINAL         |          LEARNT          | Progress |
|           |    Vars  Clauses Literals |    Limit  Clauses Lit/Cl |          |
===============================================================================
|       100 |   63964   110861   276910 |    40649      100     17 | 27.013 % |
|       250 |   63964   110861   276910 |    44713      250     31 | 27.013 % |
|       475 |   63964   110861   276910 |    49185      475     45 | 27.013 % |
|       812 |   63940   110761   276681 |    54103      811     63 | 27.041 % |
|      1318 |   63922   110687   276510 |    59514     1316     70 | 27.061 % |
|      2077 |   63867   110579   276263 |    65465     2072     66 | 27.124 % |
|      3216 |   63830   110269   275558 |    72012     3208     80 | 27.166 % |
|      4924 |   63766   110021   274950 |    79213     4914     82 | 27.239 % |
|      7486 |   63766   110021   274950 |    87134     7476     74 | 27.239 % |
|     11330 |   63705   109736   274306 |    95848    10468     75 | 27.309 % |
|     17096 |   54609    81129   203294 |   105433    14135     76 | 37.688 % |
===============================================================================
restarts              : 63
conflicts             : 19033          (7486 /sec)
decisions             : 62166          (0.00 % random) (24450 /sec)
propagations          : 25079926       (9864045 /sec)
conflict literals     : 1440420        (51.74 % deleted)
Memory used           : 37.78 MB
CPU time              : 2.54256 s

INDETERMINATE
